NAME          alm4s     
ROWS
 N      COST
 E  R0000000
 E  R0000001
 E  R0000002
 E  R0000003
 E  R0000004
 E  R0000005
 G  R0000006
 G  R0000007
 G  R0000008
 G  R0000009
 L  R0000010
 L  R0000011
 L  R0000012
 L  R0000013
 G  R0000014
 L  R0000015
 G  R0000016
 E  R0000017
 E  R0000018
 E  R0000019
 E  R0000020
 E  R0000021
 E  R0000022
 G  R0000023
 G  R0000024
 G  R0000025
 G  R0000026
 L  R0000027
 L  R0000028
 L  R0000029
 L  R0000030
 G  R0000031
 L  R0000032
 G  R0000033
 E  R0000034
 E  R0000035
 E  R0000036
 E  R0000037
 E  R0000038
 E  R0000039
 G  R0000040
 G  R0000041
 G  R0000042
 G  R0000043
 L  R0000044
 L  R0000045
 L  R0000046
 L  R0000047
 G  R0000048
 L  R0000049
 G  R0000050
 E  R0000051
 G  R0000052
 G  R0000053
 E  R0000054
 G  R0000055
 G  R0000056
 E  R0000057
 E  R0000058
 E  R0000059
 E  R0000060
 E  R0000061
 E  R0000062
 G  R0000063
 G  R0000064
 G  R0000065
 G  R0000066
 L  R0000067
 L  R0000068
 L  R0000069
 L  R0000070
 G  R0000071
 L  R0000072
 G  R0000073
 E  R0000074
 G  R0000075
 G  R0000076
 E  R0000077
 G  R0000078
 G  R0000079
 E  R0000080
 E  R0000081
 E  R0000082
 E  R0000083
 E  R0000084
 E  R0000085
 G  R0000086
 G  R0000087
 G  R0000088
 G  R0000089
 L  R0000090
 L  R0000091
 L  R0000092
 L  R0000093
 G  R0000094
 L  R0000095
 G  R0000096
 E  R0000097
 E  R0000098
 E  R0000099
 E  R0000100
 E  R0000101
 E  R0000102
 G  R0000103
 G  R0000104
 G  R0000105
 G  R0000106
 L  R0000107
 L  R0000108
 L  R0000109
 L  R0000110
 G  R0000111
 L  R0000112
 G  R0000113
 E  R0000114
 G  R0000115
 G  R0000116
 E  R0000117
 G  R0000118
 G  R0000119
 E  R0000120
 E  R0000121
 E  R0000122
 E  R0000123
 E  R0000124
 E  R0000125
 G  R0000126
 G  R0000127
 G  R0000128
 G  R0000129
 L  R0000130
 L  R0000131
 L  R0000132
 L  R0000133
 G  R0000134
 L  R0000135
 G  R0000136
 E  R0000137
 G  R0000138
 G  R0000139
 E  R0000140
 G  R0000141
 G  R0000142
COLUMNS
    C0000000      COST          1.25
    C0000000  R0000000             1
    C0000001  R0000000            -1
    C0000001  R0000005             1
    C0000001  R0000016             1
    C0000002  R0000001       0.99575
    C0000002  R0000005      -0.00425
    C0000003  R0000002        0.9985
    C0000003  R0000005       -0.0015
    C0000004  R0000003       0.99575
    C0000004  R0000005      -0.00425
    C0000005  R0000004        0.9995
    C0000005  R0000005       -0.0005
    C0000006  R0000001      -1.00425
    C0000006  R0000005      -0.00425
    C0000007  R0000002       -1.0015
    C0000007  R0000005       -0.0015
    C0000008  R0000003      -1.00425
    C0000008  R0000005      -0.00425
    C0000009  R0000004       -1.0005
    C0000009  R0000005       -0.0005
    C0000010  R0000001            -1
    C0000010  R0000005            -1
    C0000010  R0000006           0.7
    C0000010  R0000007          -0.3
    C0000010  R0000008          -0.1
    C0000010  R0000010           0.4
    C0000010  R0000011          -0.6
    C0000010  R0000012         -0.25
    C0000010  R0000013          -0.2
    C0000010  R0000017           213
    C0000010  R0000018         1e+06
    C0000010  R0000080           213
    C0000010  R0000081         1e+06
    C0000011  R0000002            -1
    C0000011  R0000005            -1
    C0000011  R0000006          -0.3
    C0000011  R0000007           0.7
    C0000011  R0000008          -0.1
    C0000011  R0000010          -0.6
    C0000011  R0000011           0.4
    C0000011  R0000012         -0.25
    C0000011  R0000013          -0.2
    C0000011  R0000017           214
    C0000011  R0000019           218
    C0000011  R0000080           214
    C0000011  R0000082           218
    C0000012  R0000003            -1
    C0000012  R0000005            -1
    C0000012  R0000006          -0.3
    C0000012  R0000007          -0.3
    C0000012  R0000008           0.9
    C0000012  R0000010          -0.6
    C0000012  R0000011          -0.6
    C0000012  R0000012          0.75
    C0000012  R0000013          -0.2
    C0000012  R0000017           215
    C0000012  R0000020           219
    C0000012  R0000080           215
    C0000012  R0000083           219
    C0000013  R0000004            -1
    C0000013  R0000005            -1
    C0000013  R0000006          -0.3
    C0000013  R0000007          -0.3
    C0000013  R0000008          -0.1
    C0000013  R0000009             1
    C0000013  R0000010          -0.6
    C0000013  R0000011          -0.6
    C0000013  R0000012         -0.25
    C0000013  R0000013           0.8
    C0000013  R0000017           216
    C0000013  R0000021           220
    C0000013  R0000080           216
    C0000013  R0000084           220
    C0000014      COST       10255.2
    C0000014  R0000014             1
    C0000014  R0000015             1
    C0000014  R0000017           211
    C0000014  R0000080           211
    C0000015      COST      0.605812
    C0000015  R0000017             1
    C0000016  R0000017            -1
    C0000016  R0000022             1
    C0000016  R0000033             1
    C0000017  R0000018       0.99575
    C0000017  R0000022      -0.00425
    C0000018  R0000019        0.9985
    C0000018  R0000022       -0.0015
    C0000019  R0000020       0.99575
    C0000019  R0000022      -0.00425
    C0000020  R0000021        0.9995
    C0000020  R0000022       -0.0005
    C0000021  R0000018      -1.00425
    C0000021  R0000022      -0.00425
    C0000022  R0000019       -1.0015
    C0000022  R0000022       -0.0015
    C0000023  R0000020      -1.00425
    C0000023  R0000022      -0.00425
    C0000024  R0000021       -1.0005
    C0000024  R0000022       -0.0005
    C0000025  R0000018            -1
    C0000025  R0000022            -1
    C0000025  R0000023           0.7
    C0000025  R0000024          -0.3
    C0000025  R0000025          -0.1
    C0000025  R0000027           0.4
    C0000025  R0000028          -0.6
    C0000025  R0000029         -0.25
    C0000025  R0000030          -0.2
    C0000025  R0000034           313
    C0000025  R0000035           317
    C0000025  R0000057           313
    C0000025  R0000058           317
    C0000026  R0000019            -1
    C0000026  R0000022            -1
    C0000026  R0000023          -0.3
    C0000026  R0000024           0.7
    C0000026  R0000025          -0.1
    C0000026  R0000027          -0.6
    C0000026  R0000028           0.4
    C0000026  R0000029         -0.25
    C0000026  R0000030          -0.2
    C0000026  R0000034           314
    C0000026  R0000036           318
    C0000026  R0000057           314
    C0000026  R0000059           318
    C0000027  R0000020            -1
    C0000027  R0000022            -1
    C0000027  R0000023          -0.3
    C0000027  R0000024          -0.3
    C0000027  R0000025           0.9
    C0000027  R0000027          -0.6
    C0000027  R0000028          -0.6
    C0000027  R0000029          0.75
    C0000027  R0000030          -0.2
    C0000027  R0000034           315
    C0000027  R0000037           319
    C0000027  R0000057           315
    C0000027  R0000060           319
    C0000028  R0000021            -1
    C0000028  R0000022            -1
    C0000028  R0000023          -0.3
    C0000028  R0000024          -0.3
    C0000028  R0000025          -0.1
    C0000028  R0000026             1
    C0000028  R0000027          -0.6
    C0000028  R0000028          -0.6
    C0000028  R0000029         -0.25
    C0000028  R0000030           0.8
    C0000028  R0000034           316
    C0000028  R0000038           320
    C0000028  R0000057           316
    C0000028  R0000061           320
    C0000029      COST       4942.55
    C0000029  R0000031             1
    C0000029  R0000032             1
    C0000029  R0000034           311
    C0000029  R0000057           311
    C0000030      COST      0.290875
    C0000030  R0000034             1
    C0000031  R0000034            -1
    C0000031  R0000039             1
    C0000031  R0000050             1
    C0000032  R0000035       0.99575
    C0000033  R0000036        0.9985
    C0000034  R0000037       0.99575
    C0000035  R0000038        0.9995
    C0000036  R0000035      -1.00425
    C0000037  R0000036       -1.0015
    C0000038  R0000037      -1.00425
    C0000039  R0000038       -1.0005
    C0000040  R0000035            -1
    C0000040  R0000039            -1
    C0000040  R0000040           0.7
    C0000040  R0000041          -0.3
    C0000040  R0000042          -0.1
    C0000040  R0000044           0.4
    C0000040  R0000045          -0.6
    C0000040  R0000046         -0.25
    C0000040  R0000047          -0.2
    C0000040  R0000051           413
    C0000040  R0000054           413
    C0000041  R0000036            -1
    C0000041  R0000039            -1
    C0000041  R0000040          -0.3
    C0000041  R0000041           0.7
    C0000041  R0000042          -0.1
    C0000041  R0000044          -0.6
    C0000041  R0000045           0.4
    C0000041  R0000046         -0.25
    C0000041  R0000047          -0.2
    C0000041  R0000051           414
    C0000041  R0000054           414
    C0000042  R0000037            -1
    C0000042  R0000039            -1
    C0000042  R0000040          -0.3
    C0000042  R0000041          -0.3
    C0000042  R0000042           0.9
    C0000042  R0000044          -0.6
    C0000042  R0000045          -0.6
    C0000042  R0000046          0.75
    C0000042  R0000047          -0.2
    C0000042  R0000051           415
    C0000042  R0000054           415
    C0000043  R0000038            -1
    C0000043  R0000039            -1
    C0000043  R0000040          -0.3
    C0000043  R0000041          -0.3
    C0000043  R0000042          -0.1
    C0000043  R0000043             1
    C0000043  R0000044          -0.6
    C0000043  R0000045          -0.6
    C0000043  R0000046         -0.25
    C0000043  R0000047           0.8
    C0000043  R0000051           416
    C0000043  R0000054           416
    C0000044      COST       2375.75
    C0000044  R0000048             1
    C0000044  R0000049             1
    C0000044  R0000051           411
    C0000044  R0000054           411
    C0000045      COST      0.138641
    C0000045  R0000051             1
    C0000046  R0000051            -1
    C0000046  R0000052             1
    C0000046  R0000053             1
    C0000047      COST      0.133095
    C0000047  R0000053             1
    C0000048      COST      0.138641
    C0000048  R0000054             1
    C0000049  R0000054            -1
    C0000049  R0000055             1
    C0000049  R0000056             1
    C0000050      COST      0.133095
    C0000050  R0000056             1
    C0000051      COST      0.290875
    C0000051  R0000057             1
    C0000052  R0000057            -1
    C0000052  R0000062             1
    C0000052  R0000073             1
    C0000053  R0000058       0.99575
    C0000054  R0000059        0.9985
    C0000055  R0000060       0.99575
    C0000056  R0000061        0.9995
    C0000057  R0000058      -1.00425
    C0000058  R0000059       -1.0015
    C0000059  R0000060      -1.00425
    C0000060  R0000061       -1.0005
    C0000061  R0000058            -1
    C0000061  R0000062            -1
    C0000061  R0000063           0.7
    C0000061  R0000064          -0.3
    C0000061  R0000065          -0.1
    C0000061  R0000067           0.4
    C0000061  R0000068          -0.6
    C0000061  R0000069         -0.25
    C0000061  R0000070          -0.2
    C0000061  R0000074           433
    C0000061  R0000077           433
    C0000062  R0000059            -1
    C0000062  R0000062            -1
    C0000062  R0000063          -0.3
    C0000062  R0000064           0.7
    C0000062  R0000065          -0.1
    C0000062  R0000067          -0.6
    C0000062  R0000068           0.4
    C0000062  R0000069         -0.25
    C0000062  R0000070          -0.2
    C0000062  R0000074           434
    C0000062  R0000077           434
    C0000063  R0000060            -1
    C0000063  R0000062            -1
    C0000063  R0000063          -0.3
    C0000063  R0000064          -0.3
    C0000063  R0000065           0.9
    C0000063  R0000067          -0.6
    C0000063  R0000068          -0.6
    C0000063  R0000069          0.75
    C0000063  R0000070          -0.2
    C0000063  R0000074           435
    C0000063  R0000077           435
    C0000064  R0000061            -1
    C0000064  R0000062            -1
    C0000064  R0000063          -0.3
    C0000064  R0000064          -0.3
    C0000064  R0000065          -0.1
    C0000064  R0000066             1
    C0000064  R0000067          -0.6
    C0000064  R0000068          -0.6
    C0000064  R0000069         -0.25
    C0000064  R0000070           0.8
    C0000064  R0000074           436
    C0000064  R0000077           436
    C0000065      COST       2375.75
    C0000065  R0000071             1
    C0000065  R0000072             1
    C0000065  R0000074           431
    C0000065  R0000077           431
    C0000066      COST      0.138641
    C0000066  R0000074             1
    C0000067  R0000074            -1
    C0000067  R0000075             1
    C0000067  R0000076             1
    C0000068      COST      0.133095
    C0000068  R0000076             1
    C0000069      COST      0.138641
    C0000069  R0000077             1
    C0000070  R0000077            -1
    C0000070  R0000078             1
    C0000070  R0000079             1
    C0000071      COST      0.133095
    C0000071  R0000079             1
    C0000072      COST      0.605812
    C0000072  R0000080             1
    C0000073  R0000080            -1
    C0000073  R0000085             1
    C0000073  R0000096             1
    C0000074  R0000081       0.99575
    C0000074  R0000085      -0.00425
    C0000075  R0000082        0.9985
    C0000075  R0000085       -0.0015
    C0000076  R0000083       0.99575
    C0000076  R0000085      -0.00425
    C0000077  R0000084        0.9995
    C0000077  R0000085       -0.0005
    C0000078  R0000081      -1.00425
    C0000078  R0000085      -0.00425
    C0000079  R0000082       -1.0015
    C0000079  R0000085       -0.0015
    C0000080  R0000083      -1.00425
    C0000080  R0000085      -0.00425
    C0000081  R0000084       -1.0005
    C0000081  R0000085       -0.0005
    C0000082  R0000081            -1
    C0000082  R0000085            -1
    C0000082  R0000086           0.7
    C0000082  R0000087          -0.3
    C0000082  R0000088          -0.1
    C0000082  R0000090           0.4
    C0000082  R0000091          -0.6
    C0000082  R0000092         -0.25
    C0000082  R0000093          -0.2
    C0000082  R0000097           333
    C0000082  R0000098           337
    C0000082  R0000120           333
    C0000082  R0000121           337
    C0000083  R0000082            -1
    C0000083  R0000085            -1
    C0000083  R0000086          -0.3
    C0000083  R0000087           0.7
    C0000083  R0000088          -0.1
    C0000083  R0000090          -0.6
    C0000083  R0000091           0.4
    C0000083  R0000092         -0.25
    C0000083  R0000093          -0.2
    C0000083  R0000097           334
    C0000083  R0000099           338
    C0000083  R0000120           334
    C0000083  R0000122           338
    C0000084  R0000083            -1
    C0000084  R0000085            -1
    C0000084  R0000086          -0.3
    C0000084  R0000087          -0.3
    C0000084  R0000088           0.9
    C0000084  R0000090          -0.6
    C0000084  R0000091          -0.6
    C0000084  R0000092          0.75
    C0000084  R0000093          -0.2
    C0000084  R0000097           335
    C0000084  R0000100           339
    C0000084  R0000120           335
    C0000084  R0000123           339
    C0000085  R0000084            -1
    C0000085  R0000085            -1
    C0000085  R0000086          -0.3
    C0000085  R0000087          -0.3
    C0000085  R0000088          -0.1
    C0000085  R0000089             1
    C0000085  R0000090          -0.6
    C0000085  R0000091          -0.6
    C0000085  R0000092         -0.25
    C0000085  R0000093           0.8
    C0000085  R0000097           336
    C0000085  R0000101           340
    C0000085  R0000120           336
    C0000085  R0000124           340
    C0000086      COST       4942.55
    C0000086  R0000094             1
    C0000086  R0000095             1
    C0000086  R0000097           331
    C0000086  R0000120           331
    C0000087      COST      0.290875
    C0000087  R0000097             1
    C0000088  R0000097            -1
    C0000088  R0000102             1
    C0000088  R0000113             1
    C0000089  R0000098       0.99575
    C0000090  R0000099        0.9985
    C0000091  R0000100       0.99575
    C0000092  R0000101        0.9995
    C0000093  R0000098      -1.00425
    C0000094  R0000099       -1.0015
    C0000095  R0000100      -1.00425
    C0000096  R0000101       -1.0005
    C0000097  R0000098            -1
    C0000097  R0000102            -1
    C0000097  R0000103           0.7
    C0000097  R0000104          -0.3
    C0000097  R0000105          -0.1
    C0000097  R0000107           0.4
    C0000097  R0000108          -0.6
    C0000097  R0000109         -0.25
    C0000097  R0000110          -0.2
    C0000097  R0000114           453
    C0000097  R0000117           453
    C0000098  R0000099            -1
    C0000098  R0000102            -1
    C0000098  R0000103          -0.3
    C0000098  R0000104           0.7
    C0000098  R0000105          -0.1
    C0000098  R0000107          -0.6
    C0000098  R0000108           0.4
    C0000098  R0000109         -0.25
    C0000098  R0000110          -0.2
    C0000098  R0000114           454
    C0000098  R0000117           454
    C0000099  R0000100            -1
    C0000099  R0000102            -1
    C0000099  R0000103          -0.3
    C0000099  R0000104          -0.3
    C0000099  R0000105           0.9
    C0000099  R0000107          -0.6
    C0000099  R0000108          -0.6
    C0000099  R0000109          0.75
    C0000099  R0000110          -0.2
    C0000099  R0000114           455
    C0000099  R0000117           455
    C0000100  R0000101            -1
    C0000100  R0000102            -1
    C0000100  R0000103          -0.3
    C0000100  R0000104          -0.3
    C0000100  R0000105          -0.1
    C0000100  R0000106             1
    C0000100  R0000107          -0.6
    C0000100  R0000108          -0.6
    C0000100  R0000109         -0.25
    C0000100  R0000110           0.8
    C0000100  R0000114           456
    C0000100  R0000117           456
    C0000101      COST       2375.75
    C0000101  R0000111             1
    C0000101  R0000112             1
    C0000101  R0000114           451
    C0000101  R0000117           451
    C0000102      COST      0.138641
    C0000102  R0000114             1
    C0000103  R0000114            -1
    C0000103  R0000115             1
    C0000103  R0000116             1
    C0000104      COST      0.133095
    C0000104  R0000116             1
    C0000105      COST      0.138641
    C0000105  R0000117             1
    C0000106  R0000117            -1
    C0000106  R0000118             1
    C0000106  R0000119             1
    C0000107      COST      0.133095
    C0000107  R0000119             1
    C0000108      COST      0.290875
    C0000108  R0000120             1
    C0000109  R0000120            -1
    C0000109  R0000125             1
    C0000109  R0000136             1
    C0000110  R0000121       0.99575
    C0000111  R0000122        0.9985
    C0000112  R0000123       0.99575
    C0000113  R0000124        0.9995
    C0000114  R0000121      -1.00425
    C0000115  R0000122       -1.0015
    C0000116  R0000123      -1.00425
    C0000117  R0000124       -1.0005
    C0000118  R0000121            -1
    C0000118  R0000125            -1
    C0000118  R0000126           0.7
    C0000118  R0000127          -0.3
    C0000118  R0000128          -0.1
    C0000118  R0000130           0.4
    C0000118  R0000131          -0.6
    C0000118  R0000132         -0.25
    C0000118  R0000133          -0.2
    C0000118  R0000137           473
    C0000118  R0000140           473
    C0000119  R0000122            -1
    C0000119  R0000125            -1
    C0000119  R0000126          -0.3
    C0000119  R0000127           0.7
    C0000119  R0000128          -0.1
    C0000119  R0000130          -0.6
    C0000119  R0000131           0.4
    C0000119  R0000132         -0.25
    C0000119  R0000133          -0.2
    C0000119  R0000137           474
    C0000119  R0000140           474
    C0000120  R0000123            -1
    C0000120  R0000125            -1
    C0000120  R0000126          -0.3
    C0000120  R0000127          -0.3
    C0000120  R0000128           0.9
    C0000120  R0000130          -0.6
    C0000120  R0000131          -0.6
    C0000120  R0000132          0.75
    C0000120  R0000133          -0.2
    C0000120  R0000137           475
    C0000120  R0000140           475
    C0000121  R0000124            -1
    C0000121  R0000125            -1
    C0000121  R0000126          -0.3
    C0000121  R0000127          -0.3
    C0000121  R0000128          -0.1
    C0000121  R0000129             1
    C0000121  R0000130          -0.6
    C0000121  R0000131          -0.6
    C0000121  R0000132         -0.25
    C0000121  R0000133           0.8
    C0000121  R0000137           476
    C0000121  R0000140           476
    C0000122      COST       2375.75
    C0000122  R0000134             1
    C0000122  R0000135             1
    C0000122  R0000137           471
    C0000122  R0000140           471
    C0000123      COST      0.138641
    C0000123  R0000137             1
    C0000124  R0000137            -1
    C0000124  R0000138             1
    C0000124  R0000139             1
    C0000125      COST      0.133095
    C0000125  R0000139             1
    C0000126      COST      0.138641
    C0000126  R0000140             1
    C0000127  R0000140            -1
    C0000127  R0000141             1
    C0000127  R0000142             1
    C0000128      COST      0.133095
    C0000128  R0000142             1
RHS
         RHS  R0000000      -16513.4
         RHS  R0000001         -7656
         RHS  R0000002         -4048
         RHS  R0000003         -3080
         RHS  R0000004         -1056
         RHS  R0000015          0.21
         RHS  R0000016         15960
         RHS  R0000017           220
         RHS  R0000032          0.21
         RHS  R0000033           221
         RHS  R0000034           320
         RHS  R0000049          0.21
         RHS  R0000050           321
         RHS  R0000051           416
         RHS  R0000052           417
         RHS  R0000053           418
         RHS  R0000054           426
         RHS  R0000055           427
         RHS  R0000056           428
         RHS  R0000057           330
         RHS  R0000072          0.21
         RHS  R0000073           331
         RHS  R0000074           436
         RHS  R0000075           437
         RHS  R0000076           438
         RHS  R0000077           446
         RHS  R0000078           447
         RHS  R0000079           448
         RHS  R0000080           230
         RHS  R0000095          0.21
         RHS  R0000096           231
         RHS  R0000097           340
         RHS  R0000112          0.21
         RHS  R0000113           341
         RHS  R0000114           456
         RHS  R0000115           457
         RHS  R0000116           458
         RHS  R0000117           466
         RHS  R0000118           467
         RHS  R0000119           468
         RHS  R0000120           350
         RHS  R0000135          0.21
         RHS  R0000136           351
         RHS  R0000137           476
         RHS  R0000138           477
         RHS  R0000139           478
         RHS  R0000140           486
         RHS  R0000141           487
         RHS  R0000142           488
RANGES
BOUNDS
ENDATA
